3 15
345 513 328 
0 59 69 91 87 2 6 64 7 76 69 95 39 3
1 62 57 101 92 35 34 68 97 72 95 2 66 3
2 23 23 1 2 70 72 97 80 65 68 33 66 2
3 90 100 57 55 6 1 63 26 75 80 86 59 3
4 37 37 83 88 29 30 71 29 46 97 45 83 1
5 24 31 71 77 26 32 91 36 8 88 55 4 1
6 43 46 64 73 93 99 7 45 32 14 22 39 2
7 23 17 53 55 93 94 80 66 84 11 70 6 3
8 15 14 71 81 56 47 70 14 79 53 49 100 1
9 16 11 59 66 2 12 66 100 76 45 58 77 3
10 47 41 75 79 24 26 21 64 4 97 44 14 2
11 69 68 83 79 87 89 92 78 60 95 73 56 1
12 45 37 73 80 28 30 100 30 26 12 60 50 2
13 85 81 27 20 62 66 52 1 77 29 67 36 3
14 62 58 92 92 22 19 6 14 12 82 78 30 3
